p tw 102 112
1 2
2 15
3 6
4 5
6 7
7 8
8 9
9 10
10 11
11 12
12 13
13 14
14 16
15 26
16 17
17 18
18 19
19 20
20 21
21 22
22 23
23 24
24 25
24 27
25 4
26 37
27 28
28 29
28 40
29 30
30 31
31 32
32 33
33 34
34 35
35 36
36 38
37 48
38 39
39 20
40 41
41 42
42 43
42 82
43 44
44 45
45 46
46 47
47 49
47 60
48 59
49 50
50 51
51 52
52 53
53 54
54 55
55 56
56 57
57 58
58 20
59 70
59 3
60 61
61 62
62 63
63 64
64 65
65 66
65 73
66 67
67 68
68 69
69 71
70 81
71 72
72 20
73 74
74 75
75 76
76 77
77 78
78 79
78 20
79 80
80 20
81 92
81 23
82 83
83 84
84 85
84 93
85 86
86 87
86 20
87 88
88 89
89 90
90 91
91 93
91 20
92 100
93 94
94 95
95 96
96 97
97 98
98 99
99 20
100 101
101 102
102 4
